
   AbsCon 1.41 (January, 2014) - defaultConfiguration

   
   instance
        framework=CSP  name=Isomorphism-/cluster/gpg/ciaran/sip-benchmarks/benchmarks/images-CVIU11/patterns/pattern20-/cluster/gpg/ciaran/sip-benchmarks/benchmarks/images-CVIU11/targets/target72
        parameters=/cluster/gpg/ciaran/sip-benchmarks/benchmarks/images-CVIU11/patterns/pattern20,/cluster/gpg/ciaran/sip-benchmarks/benchmarks/images-CVIU11/targets/target72
      

   loading variables...
        nbVariables=24  nbDomainTypes=1  nbTotalValues=103536  domainSizes=(4314:24)
          =>  wckTime=0.305  cpuTime=0.357  mem=155M479

   loading objectives...

   loading constraints...
        nbConstraints=33  nbSpecificConstraints=1  nbExtensionStructures=(1,shared:31)  nbConflictsStructures=(1,shared:31,unbuilt:1)
        degrees=(3:8)(4:16)  arities=(2:32)(24:1)  types=(AllDifferent:1)(ConstraintHardExtensionV-Bits:32)
          =>  wckTime=0.498  cpuTime=0.549  mem=170M71

   INFO : <!-- Start saving the XML representation -->

   INFO : <!-- Stop saving the XML representation of target72.xml -->

   Solver SolverBacktrack being built... 

   INFO : Stop creating residues for RevisionManagerBitRm
          =>  wckTime=4.092  cpuTime=3.951  mem=490M984

   
   search
        run=0  nbConstraintChecks=0  depth=(min:0,max:0,avg:1)  nbEffectivePropagations=30569  nbRevisions=102357  nbUselessRevisions=71826
        nbAssignments=4288  nbFailedAssignments=4288  nbBacktracks=1  nbVisitedNodes=8577  nbRestartNogoods=0
          =>  wckTime=2507.876  cpuTime=2489.939  mem=5066M213

   
   global
        nbConstraintChecks=0  nbEffectivePropagations=30569  nbRevisions=102357  nbUselessRevisions=71826  nbRestartNogoods=0
        solvingWckTime=2507.876  expiredTime=no  totalExploration=yes  nbFoundSolutions=0  Stop=FULL_EXPLORATION
          =>  wckTime=2511.969  cpuTime=2489.939  mem=5066M213

s UNSATISFIABLE
d NODES 4288

   totalWckTime=2511.86  totalCpuTime=2489.941
